(set-logic QF_SLIA)
(set-option :produce-models true)
(declare-const X String)
; ^\$?(\d{1,3}(\,\d{3})*|(\d+))(\.\d{0,2})?$
(assert (str.in_re X (re.++ (re.opt (str.to_re "$")) (re.union (re.++ ((_ re.loop 1 3) (re.range "0" "9")) (re.* (re.++ (str.to_re ",") ((_ re.loop 3 3) (re.range "0" "9"))))) (re.+ (re.range "0" "9"))) (re.opt (re.++ (str.to_re ".") ((_ re.loop 0 2) (re.range "0" "9")))) (str.to_re "\u{0a}"))))
; ^(([a-zA-Z0-9_\-\.]+)@([a-zA-Z0-9_\-\.]+)\.([a-zA-Z]{2,5}){1,25})+([;.](([a-zA-Z0-9_\-\.]+)@([a-zA-Z0-9_\-\.]+)\.([a-zA-Z]{2,5}){1,25})+)*$
(assert (not (str.in_re X (re.++ (re.+ (re.++ (re.+ (re.union (re.range "a" "z") (re.range "A" "Z") (re.range "0" "9") (str.to_re "_") (str.to_re "-") (str.to_re "."))) (str.to_re "@") (re.+ (re.union (re.range "a" "z") (re.range "A" "Z") (re.range "0" "9") (str.to_re "_") (str.to_re "-") (str.to_re "."))) (str.to_re ".") ((_ re.loop 1 25) ((_ re.loop 2 5) (re.union (re.range "a" "z") (re.range "A" "Z")))))) (re.* (re.++ (re.union (str.to_re ";") (str.to_re ".")) (re.+ (re.++ (re.+ (re.union (re.range "a" "z") (re.range "A" "Z") (re.range "0" "9") (str.to_re "_") (str.to_re "-") (str.to_re "."))) (str.to_re "@") (re.+ (re.union (re.range "a" "z") (re.range "A" "Z") (re.range "0" "9") (str.to_re "_") (str.to_re "-") (str.to_re "."))) (str.to_re ".") ((_ re.loop 1 25) ((_ re.loop 2 5) (re.union (re.range "a" "z") (re.range "A" "Z")))))))) (str.to_re "\u{0a}")))))
; ^([30|36|38]{2})([0-9]{12})$
(assert (str.in_re X (re.++ ((_ re.loop 2 2) (re.union (str.to_re "3") (str.to_re "0") (str.to_re "|") (str.to_re "6") (str.to_re "8"))) ((_ re.loop 12 12) (re.range "0" "9")) (str.to_re "\u{0a}"))))
(check-sat)
